(set-logic QF_LIA)
(declare-fun x0 () Int)
(declare-fun x1 () Int)
(declare-fun x2 () Int)
(declare-fun x3 () Int)
(declare-fun x4 () Int)
(declare-fun x5 () Int)
(declare-fun x6 () Int)
(declare-fun x7 () Int)
(declare-fun x8 () Int)
(declare-fun x9 () Int)
(declare-fun A1 () Bool)
(declare-fun A3 () Bool)
(declare-fun A4 () Bool)
(declare-fun A7 () Bool)
(assert (let ((.def_0 (* (- 1) x5))) (let ((.def_1 (< .def_0 1))) (let ((.def_2 (not .def_1))) (let ((.def_3 (and A4 .def_2))) (let ((.def_4 (not A7))) (let ((.def_5 (* (- 1) x0))) (let ((.def_6 (* 1 x5))) (let ((.def_7 (+ .def_6 .def_5))) (let ((.def_8 (< .def_7 1))) (let ((.def_9 (not .def_8))) (let ((.def_10 (or .def_9 .def_4))) (let ((.def_11 (or .def_10 .def_3))) (let ((.def_12 (not .def_11))) (let ((.def_13 (* 1 x0))) (let ((.def_14 (< .def_13 (- 1)))) (let ((.def_15 (not .def_14))) (let ((.def_16 (* (- 1) x8))) (let ((.def_17 (* 1 x3))) (let ((.def_18 (+ .def_17 .def_16))) (let ((.def_19 (< .def_18 1))) (let ((.def_20 (not .def_19))) (let ((.def_21 (and .def_20 .def_15))) (let ((.def_22 (* 1 x2))) (let ((.def_23 (+ .def_13 .def_22))) (let ((.def_24 (< .def_23 1))) (let ((.def_25 (not .def_24))) (let ((.def_26 (and A1 .def_25))) (let ((.def_27 (and .def_26 .def_21))) (let ((.def_28 (and .def_27 .def_12))) (let ((.def_29 (not .def_28))) (let ((.def_30 (* (- 1) x2))) (let ((.def_31 (+ .def_30 .def_0))) (let ((.def_32 (< .def_31 1))) (let ((.def_33 (* 1 x4))) (let ((.def_34 (+ .def_6 .def_33))) (let ((.def_35 (< .def_34 (- 1)))) (let ((.def_36 (not .def_35))) (let ((.def_37 (or .def_36 .def_32))) (let ((.def_38 (not .def_37))) (let ((.def_39 (not A1))) (let ((.def_40 (and A7 .def_39))) (let ((.def_41 (or .def_40 .def_38))) (let ((.def_42 (not .def_41))) (let ((.def_43 (* (- 1) x7))) (let ((.def_44 (+ .def_33 .def_43))) (let ((.def_45 (< .def_44 1))) (let ((.def_46 (not .def_45))) (let ((.def_47 (or .def_46 .def_39))) (let ((.def_48 (not .def_47))) (let ((.def_49 (not A3))) (let ((.def_50 (* (- 1) x1))) (let ((.def_51 (< .def_50 (- 1)))) (let ((.def_52 (and .def_51 .def_49))) (let ((.def_53 (not .def_52))) (let ((.def_54 (or .def_53 .def_48))) (let ((.def_55 (not .def_54))) (let ((.def_56 (or .def_55 .def_42))) (let ((.def_57 (or .def_56 .def_29))) (let ((.def_58 (<= x9 1))) (let ((.def_59 (<= 0 x9))) (let ((.def_60 (<= x8 1))) (let ((.def_61 (<= 0 x8))) (let ((.def_62 (<= x7 1))) (let ((.def_63 (<= 0 x7))) (let ((.def_64 (<= x6 1))) (let ((.def_65 (<= 0 x6))) (let ((.def_66 (<= x5 1))) (let ((.def_67 (<= 0 x5))) (let ((.def_68 (<= x4 1))) (let ((.def_69 (<= 0 x4))) (let ((.def_70 (<= x3 1))) (let ((.def_71 (<= 0 x3))) (let ((.def_72 (<= x2 1))) (let ((.def_73 (<= 0 x2))) (let ((.def_74 (<= x1 1))) (let ((.def_75 (<= 0 x1))) (let ((.def_76 (<= x0 1))) (let ((.def_77 (<= 0 x0))) (let ((.def_78 (and .def_77 .def_76 .def_75 .def_74 .def_73 .def_72 .def_71 .def_70 .def_69 .def_68 .def_67 .def_66 .def_65 .def_64 .def_63 .def_62 .def_61 .def_60 .def_59 .def_58 .def_57))) .def_78))))))))))))))))))))))))))))))))))))))))))))))))))))))))))))))))))))))))))))))))
(check-sat)
